# donnees possibles pour le model de distribution des fluides 

data;

set FLUIDES := 
F1
F2;

set DEMANDEURS :=
D1
D2;

set MAGASINS :=
M1
M2
M3;

param fldem: F1 F2 :=
D1 2 0
D2 1 3;

param flmagst: F1 F2 :=
M1 2.5 1
M2 1 2
M3 2 1;

param flmagp: F1 F2:=
M1 1 1
M2 2 3
M3 3 2;

param MDexp: M1 M2 M3 :=
D1 110 90 100
D2 110 90 100;

param MDexpc: M1 M2 M3 :=
D1 10 1 5
D2 2 20 10;

end;

